4 
5  24 37 51 
6  00 15 22 30 37 42 47 52 57 
7  02 07 12 17 22 27 32 37 42 47 52 57 
8  02 07 12 17 22 27 32 37 42 49 57 
9  05 13 20 28 35 42 50 57 
10  05 12 20 27 35 42 50 57 
11  05 12 20 27 35 42 50 57 
12  05 12 20 27 35 42 50 57 
13  05 13 21 28 36 43 51 58 
14  05 13 21 28 36 42 50 57 
15  02 07 12 17 22 27 32 37 42 47 52 57 
16  02 07 12 17 22 27 32 37 42 47 52 57 
17  02 07 12 17 22 27 32 37 42 47 52 57 
18  02 07 12 17 22 27 32 37 46 52 59 
19  05 12 20 27 35 43 50 57 
20  05 12 20 27 34 42 50 57 
21  04 12 20 27 35 42 50 57 
22  06 21 38 52 
23  12 27 46 
0 
